397241.7
874 873 414 413 412 411 876 877 921 920 922 923 924 925 926 927 928 929 930 931 933 935 937 938 936 934 932 410 409 408 407 406 405 404 403 402 401 400 399 398 397 396 395 394 393 392 391 390 389 388 387 386 385 384 383 382 381 380 379 378 377 376 375 374 373 372 371 370 369 368 367 366 365 364 363 362 361 360 359 2212 2211 2210 2209 2208 2207 2206 2205 2204 2203 2202 2201 2200 2199 2198 2274 2275 2276 2269 2268 2270 2271 2273 2272 2213 2214 2215 2216 2217 2218 2219 2220 2221 2222 2223 2258 2259 2256 2257 2224 2225 2227 2226 2228 2229 2230 2231 2232 2233 2235 2234 2237 2238 2236 2243 2244 2245 2246 2247 2248 2249 2250 2251 2252 2253 2255 2254 2260 2261 2262 2263 2266 2267 2265 2318 2319 2264 2321 2322 2320 2311 2312 2313 2317 2316 2315 2314 2310 2327 2323 2324 2325 2326 2330 2331 2332 2334 2333 2335 2336 2337 2338 2339 2340 2341 2342 2343 2344 2345 2346 2347 2348 2350 2349 2242 2241 2240 2239 41 40 39 38 36 37 33 34 35 2359 2358 2360 2361 2362 2363 2366 2364 2365 2368 2367 2357 2356 2355 2354 2353 2352 2351 2370 2371 2369 2372 2373 2374 2375 2376 2377 2378 2379 2380 2381 2382 2383 2385 2389 2390 2391 0 2 1 3 4 5 6 7 1351 1352 1353 1355 1354 2388 2387 2386 2384 1365 1366 1367 1368 1369 1370 1371 1372 1373 1374 1375 1376 1377 1378 1379 1380 1381 1382 1383 1385 1384 1386 1389 1390 1396 1397 1395 1394 1391 1388 1387 1359 1360 1364 1363 1362 1361 1358 1356 1357 1392 1393 1328 1327 1329 1330 1331 1332 1333 1334 1335 1336 1337 1339 1338 1340 1341 1342 1343 1344 1345 1346 1347 1348 1349 1350 8 9 10 11 12 13 14 15 16 17 18 19 20 21 59 22 23 24 25 26 28 27 29 30 31 32 48 46 47 49 50 51 52 53 54 55 56 57 58 60 61 62 63 64 65 66 67 68 69 70 71 73 1244 72 74 75 76 77 78 79 80 82 81 178 177 163 164 165 166 168 169 167 174 175 176 179 180 181 182 183 184 185 186 187 188 45 44 43 42 190 189 191 192 193 194 195 196 171 172 173 170 197 198 199 202 200 201 220 219 218 203 210 204 205 206 209 207 208 211 212 213 214 215 216 217 221 222 223 224 225 226 227 228 229 230 231 232 233 234 235 236 238 237 239 240 241 266 242 243 244 245 246 247 250 251 252 253 254 255 260 259 258 256 257 357 358 356 355 354 353 350 349 347 346 348 351 352 261 262 249 248 264 265 267 268 269 270 271 272 274 273 263 276 275 277 278 279 281 280 285 288 297 298 299 300 301 302 303 304 305 306 307 309 310 308 313 311 312 314 315 316 317 318 319 320 321 323 322 324 325 327 326 291 292 293 294 296 295 290 289 287 286 284 283 282 343 344 345 341 342 339 340 338 337 336 335 334 333 332 331 330 329 328 1025 1023 1024 1021 1022 1014 1015 1020 1018 1017 1019 1016 1013 1012 1011 1010 1009 1008 1007 1006 1005 1004 1003 1002 995 994 996 1001 1000 997 999 998 939 940 941 942 943 944 945 946 947 948 949 984 983 950 951 952 953 954 955 956 957 958 959 960 963 964 962 967 965 966 968 969 961 970 971 972 973 974 975 976 977 978 979 980 981 982 985 986 987 988 989 990 991 992 993 1044 1045 1038 1043 1042 1041 1040 1035 1034 1033 1027 1026 1028 1029 1032 1030 1031 1055 1054 1036 1039 1037 1046 1047 1048 1049 1050 1051 1053 1052 1056 1057 1058 1060 1059 1061 1062 1063 1064 1065 1066 1067 1068 1069 1070 1071 1072 1073 1074 1075 1076 1079 1078 1077 1094 1093 1080 1081 1082 1083 1084 1085 1086 1087 1088 1089 1092 1091 1090 1095 1097 1096 1098 1099 1100 1101 1102 1103 1104 1105 1106 1107 1108 1109 1111 1112 1110 128 129 130 131 132 133 134 135 136 137 126 127 125 124 123 122 121 120 118 119 154 155 153 150 149 143 144 142 141 138 139 140 145 147 146 148 151 152 156 157 158 159 160 161 162 83 84 85 86 87 88 89 90 91 92 93 94 95 96 97 98 99 101 1214 100 102 103 104 105 106 107 108 109 110 111 112 113 114 115 117 116 1114 1113 1115 1117 1118 1116 1122 1121 1119 1120 1124 1123 1125 1126 1127 1128 1129 1130 1131 1132 1133 1134 1135 1136 1137 1138 1139 1140 1176 1142 1141 1143 1144 1146 1145 1147 1148 1149 1150 1151 1152 1153 1154 1155 1156 1157 1158 1159 1160 1161 1162 1163 1164 1165 1166 1167 1168 1169 1170 1171 1172 1173 1174 1175 1177 1178 1181 1179 1180 1182 1183 1184 1185 1186 1187 1188 1189 1190 1191 1193 1195 1196 1194 1192 1197 1198 1199 1200 1201 1202 1203 1204 1205 1206 1207 1208 1209 1210 1211 1212 1213 1215 1216 1217 1218 1219 1220 1221 1222 1223 1224 1225 1226 1227 1228 1229 1230 1231 1232 1233 1234 1235 1236 1237 1238 1239 1240 1241 1242 1243 1245 1246 1247 1248 1249 1250 1251 1252 1253 1254 1255 1256 1257 1258 1259 1260 1261 1262 1263 1264 1265 1266 1267 1268 1269 1270 1271 1272 1273 1274 1275 1276 1277 1278 1279 1280 1281 1282 1283 1284 1285 1286 1287 1288 1289 1290 1291 1292 1293 1294 1295 1296 1297 1298 1299 1300 1301 1302 1303 1308 1306 1304 1305 1307 1309 1310 1311 1312 1313 1314 1315 1316 1317 1318 1320 1319 1416 1417 1414 1415 1402 1400 1321 1322 1323 1324 1325 1326 1398 1399 1401 1403 1404 1413 1412 1405 1407 1406 1408 1409 1411 1410 1421 1419 1418 1420 1422 1423 1424 1425 1426 1427 1428 1429 1430 1431 1432 1433 1434 1435 1436 1437 1438 1439 1440 1441 1442 1444 1445 1446 1443 1447 1448 1449 1450 1451 1452 1453 1454 1455 1456 1457 1458 1459 1460 1461 1462 1463 1464 1465 1466 1467 1468 1469 1470 1471 1472 1473 1474 1476 1475 1477 1478 1479 1504 1505 1506 1507 1503 1502 1480 1481 1482 1483 1484 1485 1486 1487 1488 1489 1490 1491 1492 1493 1494 1495 1496 1497 1498 1499 1500 1501 1514 1515 1516 1519 1522 1521 1520 1581 1582 1583 1579 1580 1577 1578 1576 1575 1574 1573 1572 1571 1570 1569 1568 1567 1566 1564 1529 1530 1531 1532 1534 1533 1528 1527 1525 1524 1523 1518 1517 1513 1512 1511 1510 1508 1509 1526 1535 1536 1537 1538 1539 1540 1541 1542 1543 1552 1544 1545 1547 1548 1546 1551 1549 1550 1553 1554 1555 1556 1557 1558 1559 1561 1560 1562 1563 1565 2299 2300 2301 2302 2303 2306 2304 2305 2329 2328 2307 2308 2309 2285 2286 2287 2289 2288 2296 2297 2298 2295 2294 2292 2291 2293 2290 2283 2284 2282 2281 2280 2279 2278 2277 2197 2196 2195 2194 2193 2192 2191 2190 2189 2188 2187 2186 2185 2184 2183 2182 2181 2180 2179 2178 2177 2176 2175 2174 2173 2172 2171 2170 2169 2168 2165 2163 2161 2160 2162 2164 2166 2167 1584 1585 1586 1587 1588 1589 1590 1591 1592 1593 1594 1595 1596 1597 1598 1599 1600 1601 1602 1603 1604 1605 1606 1607 1608 1609 1610 1611 1612 1614 1613 1635 1634 1633 1636 1637 1638 1639 1640 1641 1629 1642 1643 1644 1645 1646 1647 1648 1649 1650 1651 1652 1653 1654 1655 1656 1659 1657 1658 1677 1676 1675 1674 1673 1672 1671 1670 1669 1668 1664 1665 1667 1660 1661 1666 1663 1662 1626 1625 1627 1628 1630 1631 1632 1624 1623 1622 1621 1620 1619 1618 1616 1615 2159 2158 2157 2156 1617 2155 2154 2153 2152 2115 2116 2117 2114 2111 2113 2112 2110 2109 2108 2107 2106 2105 2104 2103 2101 2102 2100 2099 2098 2097 2096 2095 2092 2093 2094 1995 1996 1997 2010 2012 2011 2009 1998 1999 2000 2008 2007 2005 2006 2004 2003 2001 2002 1988 1989 1990 1991 1992 1994 1993 2124 2123 2120 2119 2118 2121 2122 2125 2126 2142 2143 2149 2150 2151 2148 2146 2147 2145 2144 2141 2140 2139 2138 2137 2136 2135 2134 2133 1789 1788 1678 1679 1680 1681 1682 1683 1684 1685 1686 1687 1688 1689 1690 1691 1692 1693 1695 1694 1696 1697 1698 1702 1703 1704 1705 1701 1700 1699 1723 1724 1725 1722 1721 1720 1726 1727 1728 1729 1731 1730 1733 1732 1741 1740 1734 1736 1737 1735 1739 1738 1745 1746 1747 1748 1750 1751 1749 1744 1743 1742 1719 1718 1714 1715 1713 1712 1711 1716 1717 1706 1707 1708 1709 1710 1764 1763 1762 1761 1760 1759 1758 1752 1753 1754 1757 1755 1756 1813 1814 1815 1812 1811 1810 1809 1808 1807 1805 1771 1770 1769 1772 1773 1774 1768 1766 1765 1767 1776 1777 1775 1778 1779 1780 1781 1782 1783 1784 1785 1786 1787 1792 1790 1791 1794 1793 1795 1796 1797 1798 1799 1800 1802 1801 1803 1804 1806 1922 1923 1924 1927 1926 1925 1912 1913 1914 1915 1916 1919 1920 1921 1918 1917 1816 1817 1818 1819 1820 1821 1822 1823 1824 1825 1826 1827 1828 1829 1830 1892 1890 1891 1831 1832 1833 1834 1835 1836 1837 1838 1839 1840 1841 1842 1843 1844 1845 1846 1847 1848 1849 1850 1851 1852 1853 1854 1855 1856 1857 1858 1859 1860 1861 1862 1863 1866 1864 1865 1867 1868 1869 1870 1871 1872 1873 1874 1875 1876 1877 1878 1880 1881 1882 1883 1884 1879 1885 1886 1887 1888 1889 1893 1894 1902 1903 1904 1900 1901 1899 1895 1896 1897 1898 1911 1910 1909 1905 1906 1907 1908 1933 1932 1929 1928 1930 1931 1934 1935 1939 1937 1936 1938 1945 1944 1941 1940 1942 1943 1951 1952 1953 1950 1949 1948 1946 1947 2132 2131 2130 2129 2128 2127 1987 1986 1985 1984 1983 1982 1981 1980 1979 1978 1977 1976 1975 1972 1974 1973 1954 1955 1956 1957 1958 1959 1960 1961 1963 1970 1971 1968 1967 1966 1969 1964 1965 1962 2035 2034 2033 2037 2036 2038 2039 2040 2041 2042 2043 2044 2045 2046 2047 2049 2050 2051 2054 2056 2055 2053 2052 2048 2032 2031 2030 2029 2027 2028 2026 2025 2024 2023 2022 2021 2020 2019 2018 2017 2016 2015 2014 2013 2091 2090 2089 2088 2087 2086 2085 2084 2083 2082 2081 2080 2079 2078 2077 2076 2075 2073 2074 2072 2071 2070 2069 2068 2067 2066 2065 2064 2063 2060 2061 2062 489 487 488 490 491 494 496 495 497 498 500 499 493 492 2059 2057 2058 501 502 503 504 505 506 507 508 509 510 511 512 513 514 515 516 517 518 519 520 521 528 527 522 523 524 525 526 529 530 531 532 533 534 535 536 537 538 539 540 541 542 549 543 544 545 546 547 548 550 551 552 553 554 556 555 557 558 559 584 585 586 587 588 589 590 592 591 594 595 597 598 596 599 600 601 593 602 603 604 605 606 607 608 609 610 611 612 613 620 621 619 614 615 618 616 617 674 675 676 673 672 671 670 669 668 666 631 632 634 635 633 630 629 628 627 626 625 624 623 622 571 570 577 578 576 572 573 574 575 579 580 581 582 583 560 561 562 563 564 565 566 567 569 568 637 638 636 639 640 641 642 643 644 645 646 647 649 456 650 648 651 652 653 654 655 656 657 658 659 660 661 662 663 664 665 667 783 784 785 786 773 772 759 758 774 775 776 680 777 780 781 782 779 778 677 678 679 681 682 683 684 685 686 687 688 689 690 691 753 751 752 692 693 694 695 696 697 698 699 700 701 702 703 704 705 706 707 708 709 710 711 713 712 714 715 716 717 718 719 720 721 722 723 724 727 725 726 728 729 730 731 732 733 734 735 736 737 738 739 740 741 742 743 744 745 746 747 748 749 750 755 754 756 757 760 761 762 763 764 765 766 767 768 769 770 771 787 788 789 790 791 792 793 794 795 796 798 797 799 800 801 802 803 804 805 806 807 808 810 812 813 814 811 809 842 840 841 843 844 846 847 848 849 850 851 852 853 855 854 442 441 443 444 446 447 445 449 448 450 451 452 453 845 454 455 457 458 459 461 462 463 460 464 465 466 467 468 470 469 471 472 473 474 475 476 477 479 480 486 485 484 483 482 481 478 438 439 440 437 434 436 435 433 432 431 430 429 428 427 426 424 425 423 422 421 420 419 418 417 415 416 857 856 859 858 871 872 870 860 869 866 867 868 861 862 863 864 865 838 839 837 836 833 835 834 815 816 817 818 819 820 821 822 823 824 825 831 832 829 828 830 827 826 887 886 885 882 883 884 888 889 890 891 907 892 893 894 895 896 897 898 899 900 901 902 903 904 905 906 908 909 910 911 912 913 914 915 916 919 917 881 918 880 879 878 875